
Log started (V12.10.0.0) Fri Apr 23 09:18:40 2021


Problem 'asset.lp' read.
Read time = 0.01 sec. (1.31 ticks)
New value for default parallel thread count: 1
New value for time limit in seconds: 150
Version identifier: 12.10.0.0 | 2019-11-26 | 843d4de
CPXPARAM_Threads                                 1
CPXPARAM_TimeLimit                               150
Found incumbent of value 0.000000 after 0.00 sec. (0.31 ticks)
Tried aggregator 3 times.
MIP Presolve eliminated 5517 rows and 266 columns.
MIP Presolve modified 7365 coefficients.
Aggregator did 3556 substitutions.
Reduced MIP has 3649 rows, 4703 columns, and 21389 nonzeros.
Reduced MIP has 4231 binaries, 387 generals, 0 SOSs, and 0 indicators.
Presolve time = 0.04 sec. (43.98 ticks)
Probing fixed 175 vars, tightened 18 bounds.
Probing time = 0.04 sec. (27.33 ticks)
Cover probing fixed 0 vars, tightened 28 bounds.
Tried aggregator 1 time.
Detecting symmetries...
MIP Presolve eliminated 268 rows and 228 columns.
MIP Presolve modified 480 coefficients.
Reduced MIP has 3381 rows, 4475 columns, and 19382 nonzeros.
Reduced MIP has 4021 binaries, 369 generals, 0 SOSs, and 0 indicators.
Presolve time = 0.02 sec. (17.75 ticks)
Probing time = 0.01 sec. (3.58 ticks)
Clique table members: 12439.
MIP emphasis: balance optimality and feasibility.
MIP search method: dynamic search.
Parallel mode: none, using 1 thread.
Root relaxation solution time = 0.10 sec. (152.57 ticks)

        Nodes                                         Cuts/
   Node  Left     Objective  IInf  Best Integer    Best Bound    ItCnt     Gap

*     0+    0                            0.0000     1100.0000              --- 
      0     0     1015.0000   540        0.0000     1015.0000     1439     --- 
      0     0     1010.0000   540        0.0000     Cuts: 945     2959     --- 
      0     0     1010.0000   540        0.0000     Cuts: 945     5163     --- 
      0     0     1010.0000   540        0.0000     Cuts: 321     7603     --- 
*     0+    0                           20.0000     1010.0000              --- 
*     0+    0                           80.0000     1010.0000              --- 
      0     0        cutoff             80.0000     1010.0000     7603     --- 
      0     0     1009.8085   540       80.0000     Cuts: 945    12063     --- 
      0     0     1009.5132   540       80.0000     Cuts: 945    14457     --- 
Detecting symmetries...
      0     0     1009.5132   540       80.0000     Cuts: 945    16278     --- 
*     0+    0                           90.0000     1009.5132              --- 
*     0+    0                          105.0000     1009.5132           861.44%
      0     0     1009.1066   540      105.0000     Cuts: 945    18540  861.05%
      0     0     1009.0912   540      105.0000     Cuts: 945    21159  861.04%
*     0+    0                          270.0000     1009.0912           273.74%
*     0+    0                          325.0000     1009.0912           210.49%
*     0+    0                          365.0000     1009.0912           176.46%
*     0+    0                          370.0000     1009.0912           172.73%
      0     0        cutoff            370.0000     1009.0912    21159  172.73%
Detecting symmetries...
      0     2     1009.0912   501      370.0000     1009.0059    21159  172.70%
Elapsed time = 7.94 sec. (11633.28 ticks, tree = 0.01 MB, solutions = 8)
      1     3     1007.5000   572      370.0000     1009.0059    24184  172.70%
      2     4     1008.9759   610      370.0000     1008.8166    26036  172.65%
      4     6     1007.5000   562      370.0000     1007.5000    27438  172.30%
     11    13     1002.5000   449      370.0000     1007.5000    28399  172.30%
     18    18    infeasible            370.0000     1007.5000    29543  172.30%
     24    22      980.1082   484      370.0000     1007.5000    32162  172.30%
     27    25      997.8402   474      370.0000     1007.5000    34950  172.30%
     30    28      997.3688   491      370.0000     1007.5000    38683  172.30%
     31    29      942.5000   443      370.0000     1007.5000    40014  172.30%
     37    35      937.8402   394      370.0000     1007.5000    44311  172.30%
Elapsed time = 11.23 sec. (16758.45 ticks, tree = 0.75 MB, solutions = 8)
     53    51      887.5112   359      370.0000     1007.5000    50063  172.30%
     78    76      865.8801   331      370.0000     1007.5000    57142  172.30%
    107   105      856.5154   279      370.0000     1007.5000    63143  172.30%
    142   132      850.9896   281      370.0000     1007.5000    70219  172.30%
    169   157      755.0000   178      370.0000     1007.5000    77557  172.30%
    254   237      699.9625   118      370.0000     1007.5000    86425  172.30%
*   309   265      integral     0      550.0000     1007.5000    87902   83.18%
    310   265     1007.5000   585      550.0000     1007.5000    90818   83.18%
    313   268     1005.0000   585      550.0000     1007.5000    97010   83.18%
    318   273     1005.0000   521      550.0000     1007.5000   105602   83.18%
    320   275     1004.8219   541      550.0000     1007.5000   116689   83.18%
Elapsed time = 21.83 sec. (32141.74 ticks, tree = 1.54 MB, solutions = 9)
    323   278     1004.9366   511      550.0000     1007.5000   121314   83.18%
    326   281     1004.4357   486      550.0000     1007.5000   125874   83.18%
    329   284     1000.0000   511      550.0000     1007.5000   132549   83.18%
    332   287     1000.2338   455      550.0000     1007.5000   139192   83.18%
    334   289      921.4152   405      550.0000     1007.5000   145896   83.18%
    342   297      916.3441   369      550.0000     1007.5000   151658   83.18%
    360   315      913.0104   333      550.0000     1007.5000   155970   83.18%
    380   335      890.5020   337      550.0000     1007.5000   162862   83.18%
    400   355      909.8049   276      550.0000     1007.5000   169151   83.18%
    408   363      904.2509   328      550.0000     1007.5000   176262   83.18%
Elapsed time = 29.82 sec. (43923.59 ticks, tree = 1.75 MB, solutions = 9)
    421   376      882.2857   276      550.0000     1007.5000   183249   83.18%
    434   389      815.9062   308      550.0000     1007.5000   191495   83.18%
    453   408      824.6572   222      550.0000     1007.5000   199253   83.18%
    487   442      750.0000   158      550.0000     1007.5000   206677   83.18%

Performing restart 1

Repeating presolve.
Tried aggregator 1 time.
MIP Presolve eliminated 13 rows and 0 columns.
MIP Presolve modified 5545 coefficients.
Reduced MIP has 3368 rows, 4475 columns, and 16358 nonzeros.
Reduced MIP has 4021 binaries, 369 generals, 0 SOSs, and 0 indicators.
Presolve time = 0.01 sec. (15.04 ticks)
Tried aggregator 1 time.
Reduced MIP has 3368 rows, 4475 columns, and 16358 nonzeros.
Reduced MIP has 4021 binaries, 369 generals, 0 SOSs, and 0 indicators.
Presolve time = 0.01 sec. (11.16 ticks)
Represolve time = 0.11 sec. (82.61 ticks)
    490     0      978.7049   632      550.0000     Cuts: 853   220275   77.95%
    490     0      964.2926   632      550.0000     Cuts: 691   223497   75.33%
    490     0      957.2800   632      550.0000     Cuts: 481   226404   74.05%
*   490+    0                          555.0000      957.2800            72.48%
    490     0      953.2075   632      555.0000     Cuts: 525   229835   71.75%
    490     0      951.3463   632      555.0000     Cuts: 426   232411   71.41%
    490     0      948.5962   632      555.0000     Cuts: 519   236038   70.92%
    490     0      946.7228   632      555.0000     Cuts: 510   239827   70.58%
    490     0      946.2384   632      555.0000     Cuts: 329   241225   70.49%
    490     0      945.6055   632      555.0000     Cuts: 326   242391   70.38%
*   490+    0                          560.0000      945.6055            68.86%
*   490+    0                          575.0000      945.6055            64.45%
    490     0        cutoff            575.0000      945.6055   242391   64.45%
    490     0      945.0344   632      575.0000     Cuts: 354   243310   64.35%
    490     0      944.1516   632      575.0000     Cuts: 298   244257   64.20%
    490     0      943.6251   632      575.0000     Cuts: 277   245473   64.11%
    490     0      943.0680   632      575.0000     Cuts: 304   246619   64.01%
    490     0      942.8478   632      575.0000     Cuts: 352   247506   63.97%
    490     0      942.1184   632      575.0000     Cuts: 275   249081   63.85%
*   490+    0                          585.0000      942.1184            61.05%
*   490+    0                          595.0000      942.1184            58.34%
*   490+    0                          600.0000      942.1184            57.02%
*   490+    0                          605.0000      942.1184            55.72%
    490     0        cutoff            605.0000      942.1184   249081   55.72%
    490     0      941.7432   632      605.0000     Cuts: 342   250132   55.66%
    490     0      941.2730   632      605.0000     Cuts: 330   251286   55.58%
    490     0      940.7356   632      605.0000     Cuts: 321   252734   55.49%
    490     0      940.0872   632      605.0000     Cuts: 372   254374   55.39%
    490     0      939.8255   632      605.0000     Cuts: 411   255633   55.34%
    490     0      939.7113   632      605.0000     Cuts: 378   256895   55.32%
    490     0      939.6589   632      605.0000     Cuts: 265   257491   55.32%
    490     0      939.5497   632      605.0000     Cuts: 261   258754   55.30%
    490     0      939.3560   632      605.0000     Cuts: 284   260227   55.27%
    490     0      939.2765   632      605.0000     Cuts: 373   261640   55.25%
    490     0      939.1976   632      605.0000     Cuts: 166   262186   55.24%
    490     0      939.1441   632      605.0000     Cuts: 260   263007   55.23%
    490     2      939.1441   595      605.0000      939.1434   263007   55.23%
    492     4      928.6882   543      605.0000      939.0837   266491   55.22%
    495     7      938.7397   575      605.0000      938.7375   267153   55.16%
    497     9      938.3450   562      605.0000      938.7375   269077   55.16%
    499    11      938.0645   549      605.0000      938.7375   271443   55.16%
    501    13      937.7893   541      605.0000      938.7375   275450   55.16%
Elapsed time = 76.90 sec. (106183.88 ticks, tree = 0.09 MB, solutions = 16)
    503    15      937.7585   564      605.0000      938.7375   277733   55.16%
    506    18      937.3081   547      605.0000      938.7375   280800   55.16%
    508    20      937.2207   550      605.0000      938.7375   283549   55.16%
    512    24      937.0429   544      605.0000      938.7375   286537   55.16%
    514    26      934.2515   527      605.0000      938.7375   292324   55.16%
    516    28      933.7820   513      605.0000      938.7375   296628   55.16%
    520    32      935.4612   519      605.0000      938.7375   300656   55.16%
    524    36      930.6203   503      605.0000      938.7375   303146   55.16%
    526    38      933.4113   535      605.0000      938.7375   306084   55.16%
    529    41      931.6836   501      605.0000      938.7375   310884   55.16%
Elapsed time = 84.22 sec. (117704.51 ticks, tree = 0.29 MB, solutions = 16)
    533    45      923.1141   487      605.0000      938.7375   317491   55.16%
    536    48      903.1222   459      605.0000      938.7375   325315   55.16%
    540    52      923.0648   473      605.0000      938.7375   329065   55.16%
    544    56      912.8776   476      605.0000      938.7375   335617   55.16%
    547    59      915.3867   499      605.0000      938.7375   338665   55.16%
    550    62      920.3935   461      605.0000      938.7375   342090   55.16%
    554    66      918.9705   502      605.0000      938.7375   345722   55.16%
    558    70      914.6496   470      605.0000      938.7375   349023   55.16%
    562    74      912.3360   468      605.0000      938.7375   353826   55.16%
    568    80      913.1523   445      605.0000      938.7375   358395   55.16%
Elapsed time = 93.22 sec. (131722.81 ticks, tree = 0.77 MB, solutions = 16)
    570    82      915.3391   460      605.0000      938.7375   359304   55.16%
    575    87      907.7770   452      605.0000      938.7375   365065   55.16%
    580    92      913.1114   450      605.0000      938.7375   368100   55.16%
    587    99      912.1109   454      605.0000      938.7375   371600   55.16%
    590   102      910.5998   464      605.0000      938.7375   375396   55.16%
    593   104      882.1988   420      605.0000      938.7375   381010   55.16%
    600   111      879.9674   409      605.0000      938.7375   384586   55.16%
    608   117      876.7577   380      605.0000      938.7375   388912   55.16%
    615   124      868.9701   338      605.0000      938.7375   395696   55.16%
    621   130      871.5200   377      605.0000      938.7375   398282   55.16%
Elapsed time = 100.99 sec. (143904.45 ticks, tree = 0.88 MB, solutions = 16)
    629   138      864.2197   378      605.0000      938.7375   402431   55.16%
    634   141      813.4816   290      605.0000      938.7375   409250   55.16%
    643   148      801.0933   266      605.0000      938.7375   411491   55.16%
    647   148      934.7011   555      605.0000      938.4307   414232   55.11%
    650   151      933.2951   562      605.0000      938.4307   416797   55.11%
    652   153      927.5593   529      605.0000      938.4307   421373   55.11%
    654   155      920.5894   510      605.0000      938.4307   429196   55.11%
    657   158      923.9048   482      605.0000      938.4307   433657   55.11%
    660   161      924.0802   524      605.0000      938.4307   437418   55.11%
    662   163      928.6927   507      605.0000      938.4307   443057   55.11%
Elapsed time = 111.20 sec. (159575.86 ticks, tree = 0.93 MB, solutions = 16)
    665   166      928.1321   517      605.0000      938.4307   447284   55.11%
    668   169      927.9520   511      605.0000      938.4307   451160   55.11%
    670   171      927.9437   512      605.0000      938.4307   451329   55.11%
    675   176      926.0380   483      605.0000      938.4307   456806   55.11%
    679   180      916.4590   497      605.0000      938.4307   464326   55.11%
    682   183      924.9181   467      605.0000      938.4307   468823   55.11%
    686   187      924.4556   448      605.0000      938.4307   471927   55.11%
    690   191      923.9319   434      605.0000      938.4307   474800   55.11%
    694   195      916.8423   455      605.0000      938.4307   480497   55.11%
    701   202      916.5364   437      605.0000      938.4307   483689   55.11%
Elapsed time = 119.80 sec. (172805.93 ticks, tree = 1.21 MB, solutions = 16)
    708   209      918.4108   438      605.0000      938.4307   487060   55.11%
    712   213      916.7203   416      605.0000      938.4307   490226   55.11%
    717   218      914.4450   396      605.0000      938.4307   493498   55.11%
    723   224      906.3580   402      605.0000      938.4307   496400   55.11%
    730   231      898.8400   390      605.0000      938.4307   499216   55.11%
    742   243      899.8767   399      605.0000      938.4307   502220   55.11%
    759   260      897.0484   375      605.0000      938.4307   505269   55.11%
    774   275      896.0688   363      605.0000      938.4307   507414   55.11%
    789   290      901.6074   376      605.0000      938.4307   510483   55.11%
    851   352      895.8420   390      605.0000      938.4307   521936   55.11%
Elapsed time = 128.51 sec. (185835.86 ticks, tree = 6.08 MB, solutions = 16)
    899   391      932.0501   577      605.0000      938.4096   536548   55.11%
    932   422      879.4306   409      605.0000      938.4096   548328   55.11%
    974   461      780.3569   305      605.0000      938.4096   562343   55.11%
Starting limited solution polishing.
    999   484      894.1326   479      605.0000      938.0515   577416   55.05%
   1041   522      929.8847   526      605.0000      937.7585   589367   55.00%
   1050   531      919.4942   499      605.0000      937.7585   597432   55.00%
   1085   566      903.7347   435      605.0000      937.7585   610455   55.00%

GUB cover cuts applied:  105
Clique cuts applied:  155
Cover cuts applied:  25
Implied bound cuts applied:  76
Flow cuts applied:  11
Mixed integer rounding cuts applied:  106
Zero-half cuts applied:  99
Lift and project cuts applied:  15
Gomory fractional cuts applied:  11

Root node processing (before b&c):
  Real time             =    7.92 sec. (11615.00 ticks)
Sequential b&c:
  Real time             =  142.08 sec. (205480.08 ticks)
                          ------------
Total (root+branch&cut) =  150.00 sec. (217095.08 ticks)

Solution pool: 17 solutions saved.

MIP - Time limit exceeded, integer feasible:  Objective =  6.0500000000e+02
Current MIP best bound =  9.3775849265e+02 (gap = 332.758, 55.00%)
Solution time =  150.00 sec.  Iterations = 612957  Nodes = 1088 (568)
Deterministic time = 217095.11 ticks  (1447.28 ticks/sec)


Incumbent solution
Variable Name           Solution Value
F                           605.000000
y171                          1.000000
y250                          1.000000
y267                          1.000000
y149                          1.000000
y224                          1.000000
y86                           1.000000
y47                           1.000000
y121                          1.000000
y104                          1.000000
y253                          1.000000
y200                          1.000000
y233                          1.000000
y75                           1.000000
y63                           1.000000
y240                          1.000000
y212                          1.000000
y1                            1.000000
y245                          1.000000
y222                          1.000000
y179                          1.000000
y178                          1.000000
y199                          1.000000
y117                          1.000000
y255                          1.000000
y90                           1.000000
y275                          1.000000
y202                          1.000000
y111                          1.000000
y165                          1.000000
y110                          1.000000
y125                          1.000000
y70                           1.000000
y161                          1.000000
y136                          1.000000
y69                           1.000000
y37                           1.000000
y242                          1.000000
y3                            1.000000
y19                           1.000000
y98                           1.000000
y32                           1.000000
x270x250x1                    1.000000
x270x149x1                    1.000000
x266x171x1                    1.000000
x96x233x1                     1.000000
x84x121x1                     1.000000
x175x245x1                    1.000000
x273x233x1                    1.000000
x177x245x1                    1.000000
x122x212x1                    1.000000
x122x165x1                    1.000000
x217x125x1                    2.000000
x44x200x2                     1.000000
x44x75x2                      1.000000
x237x75x2                     1.000000
x96x222x2                     1.000000
x209x267x2                    1.000000
x84x104x2                     1.000000
x175x86x2                     1.000000
x273x224x2                    1.000000
x177x250x2                    1.000000
x103x86x2                     1.000000
x16x253x2                     2.000000
x237x200x3                    1.000000
x42x171x3                     1.000000
x2x104x3                      1.000000
x209x149x3                    1.000000
x62x121x3                     1.000000
x216x267x3                    1.000000
x216x47x3                     1.000000
x249x179x3                    2.000000
x269x224x3                    1.000000
x269x47x3                     1.000000
x103x212x3                    1.000000
x171x1x1                      1.000000
x171x63x3                     1.000000
x250x178x1                    1.000000
x250x117x2                    1.000000
x267x240x2                    1.000000
x267x240x3                    1.000000
x149x1x1                      1.000000
x149x199x3                    1.000000
x224x275x2                    1.000000
x224x255x3                    1.000000
x86x178x2                     1.000000
x86x110x2                     1.000000
x47x70x3                      2.000000
x121x63x1                     1.000000
x121x117x3                    1.000000
x104x222x2                    1.000000
x104x165x3                    1.000000
x253x199x2                    1.000000
x253x275x2                    1.000000
x200x111x2                    1.000000
x200x90x3                     1.000000
x233x255x1                    1.000000
x233x161x1                    1.000000
x75x37x2                      2.000000
x63x98x1                      1.000000
x63x136x3                     1.000000
x240x19x2                     1.000000
x240x19x3                     1.000000
x212x111x1                    1.000000
x212x110x3                    1.000000
x1x242x1                      2.000000
x245x90x1                     1.000000
x245x161x1                    1.000000
x222x69x2                     2.000000
x179x202x3                    2.000000
x178x0x1                      1.000000
x178x32x2                     1.000000
x199x0x2                      1.000000
x199x0x3                      1.000000
x117x0x2                      1.000000
x117x98x3                     1.000000
x255x0x1                      1.000000
x255x0x3                      1.000000
x90x0x1                       1.000000
x90x0x3                       1.000000
x275x0x2                      2.000000
x202x0x3                      2.000000
x111x0x1                      1.000000
x111x0x2                      1.000000
x165x136x1                    1.000000
x165x3x3                      1.000000
x110x0x2                      1.000000
x110x0x3                      1.000000
x125x3x1                      1.000000
x125x32x1                     1.000000
x70x0x3                       2.000000
x161x0x1                      2.000000
x136x0x1                      1.000000
x136x0x3                      1.000000
x69x0x2                       2.000000
x37x0x2                       2.000000
x242x0x1                      2.000000
x3x0x1                        1.000000
x3x0x3                        1.000000
x19x0x2                       1.000000
x19x0x3                       1.000000
x98x0x1                       1.000000
x98x0x3                       1.000000
x32x0x1                       1.000000
x32x0x2                       1.000000
s44                           5.989249
s253                          7.322030
s200                          7.335626
z44z200z2                     1.000000
s36                           6.570000
s75                           7.620000
z44z75z2                      1.000000
s159                          6.730000
s124                          6.830000
s123                          6.950000
s240                          7.950000
s213                          6.960000
s241                          8.010000
s274                          8.010000
s7                            7.080000
s222                          7.983023
s211                          7.230000
s261                          7.310000
s236                          7.340000
s178                          8.302179
s66                           7.500000
s108                          8.530000
s199                          8.540000
s117                          8.147746
s45                           8.640000
s105                          8.640000
s164                          8.640000
s21                           7.660000
s196                          8.720000
s275                          8.780000
z44z275z2                     1.000000
s14                           7.820000
s111                          8.870000
s168                          7.880000
s110                          8.910000
s38                           9.010000
s170                          9.100000
z44z170z2                     1.000000
s81                           9.160000
s221                          9.170000
s69                           9.180000
z44z69z2                      1.000000
s37                           9.190000
z44z37z2                      1.000000
s153                          9.310000
s19                           9.390000
s32                           9.500000
s237                          6.085908
s118                          6.430000
z237z200z3                    1.000000
z237z75z2                     1.000000
s63                           7.759945
s212                          7.244103
s205                          7.050000
s179                          7.537427
s100                          7.300000
s255                          8.610000
s90                           8.572688
z237z275z2                    1.000000
s202                          8.757528
z237z202z3                    1.000000
s165                          8.049647
s25                           8.930000
s70                           9.080000
z237z70z3                     1.000000
z237z170z2                    1.000000
s35                           8.221465
z237z35z3                     1.000000
s136                          9.160000
z237z69z2                     1.000000
z237z37z2                     1.000000
s225                          9.270000
s194                          9.330000
s3                            9.380000
s98                           9.440000
s42                           4.465280
s264                          5.300000
s171                          6.261771
z42z171z3                     1.000000
s267                          6.555646
s149                          6.368091
s224                          6.729681
s99                           5.890000
s142                          5.930000
s43                           5.950000
s47                           6.931136
s251                          7.010304
s218                          7.121064
s121                          6.520565
s49                           6.260000
z42z49z3                      1.000000
s104                          6.575891
s89                           6.340000
z42z89z3                      1.000000
s184                          7.077493
z42z184z3                     1.000000
s185                          6.450000
z42z185z3                     1.000000
z42z205z3                     1.000000
z42z179z3                     1.000000
z42z202z3                     1.000000
z42z70z3                      1.000000
z42z35z3                      1.000000
s2                            4.640280
z2z104z3                      1.000000
z2z184z3                      1.000000
z2z185z3                      1.000000
z2z205z3                      1.000000
z2z179z3                      1.000000
z2z202z3                      1.000000
z2z70z3                       1.000000
z2z35z3                       1.000000
s270                          4.850930
s193                          5.350000
s250                          6.540750
z270z250z1                    1.000000
z270z149z1                    1.000000
s233                          7.140215
s210                          6.690000
z270z210z1                    1.000000
s18                           6.790000
z270z18z1                     1.000000
s228                          8.060000
z270z228z1                    1.000000
s1                            8.049604
z270z1z1                      1.000000
s245                          7.279052
z270z245z1                    1.000000
s51                           7.290000
z270z51z1                     1.000000
s55                           7.420000
z270z55z1                     1.000000
s120                          7.440000
z270z120z1                    1.000000
s189                          7.540000
z270z189z1                    1.000000
s248                          7.590000
z270z248z1                    1.000000
s125                          7.991728
z270z125z1                    1.000000
s204                          8.100000
z270z204z1                    1.000000
s161                          8.641636
z270z161z1                    1.000000
s56                           9.150000
z270z56z1                     1.000000
s242                          9.330000
z270z242z1                    1.000000
s266                          4.751350
z266z171z1                    1.000000
z266z233z1                    1.000000
z266z210z1                    1.000000
z266z18z1                     1.000000
z266z228z1                    1.000000
z266z1z1                      1.000000
z266z245z1                    1.000000
z266z51z1                     1.000000
z266z55z1                     1.000000
z266z120z1                    1.000000
z266z189z1                    1.000000
z266z248z1                    1.000000
z266z125z1                    1.000000
z266z204z1                    1.000000
z266z161z1                    1.000000
z266z56z1                     1.000000
z266z242z1                    1.000000
s96                           4.955530
s29                           6.964328
z96z233z1                     1.000000
z96z228z1                     1.000000
z96z222z2                     1.000000
z96z261z2                     1.000000
z96z55z1                      1.000000
z96z189z1                     1.000000
z96z248z1                     1.000000
z96z196z2                     1.000000
z96z275z2                     1.000000
z96z125z1                     1.000000
z96z170z2                     1.000000
z96z204z1                     1.000000
z96z161z1                     1.000000
z96z56z1                      1.000000
z96z69z2                      1.000000
z96z37z2                      1.000000
z96z242z1                     1.000000
s209                          4.946730
z209z267z2                    1.000000
z209z149z3                    1.000000
s86                           6.943354
z209z159z2                    1.000000
z209z124z2                    1.000000
z209z213z2                    1.000000
z209z241z2                    1.000000
z209z205z3                    1.000000
z209z222z2                    1.000000
z209z179z3                    1.000000
z209z261z2                    1.000000
z209z196z2                    1.000000
z209z275z2                    1.000000
z209z202z3                    1.000000
z209z70z3                     1.000000
z209z170z2                    1.000000
z209z35z3                     1.000000
z209z69z2                     1.000000
z209z37z2                     1.000000
s84                           4.875920
z84z121z1                     1.000000
z84z104z2                     1.000000
z84z75z2                      1.000000
z84z210z1                     1.000000
z84z159z2                     1.000000
z84z18z1                      1.000000
z84z124z2                     1.000000
z84z213z2                     1.000000
z84z241z2                     1.000000
z84z228z1                     1.000000
z84z1z1                       1.000000
z84z245z1                     1.000000
z84z222z2                     1.000000
z84z51z1                      1.000000
z84z261z2                     1.000000
z84z55z1                      1.000000
z84z120z1                     1.000000
z84z189z1                     1.000000
z84z248z1                     1.000000
z84z196z2                     1.000000
z84z275z2                     1.000000
z84z125z1                     1.000000
z84z170z2                     1.000000
z84z204z1                     1.000000
z84z161z1                     1.000000
z84z56z1                      1.000000
z84z69z2                      1.000000
z84z37z2                      1.000000
z84z242z1                     1.000000
s62                           4.862100
z62z121z3                     1.000000
z62z185z3                     1.000000
z62z205z3                     1.000000
z62z179z3                     1.000000
z62z202z3                     1.000000
z62z70z3                      1.000000
z62z35z3                      1.000000
s175                          5.097730
z175z86z2                     1.000000
z175z228z1                    1.000000
z175z245z1                    1.000000
z175z261z2                    1.000000
z175z55z1                     1.000000
z175z120z1                    1.000000
z175z189z1                    1.000000
z175z248z1                    1.000000
z175z196z2                    1.000000
z175z275z2                    1.000000
z175z125z1                    1.000000
z175z170z2                    1.000000
z175z204z1                    1.000000
z175z161z1                    1.000000
z175z56z1                     1.000000
z175z69z2                     1.000000
z175z37z2                     1.000000
z175z242z1                    1.000000
s273                          5.321480
z273z224z2                    1.000000
z273z233z1                    1.000000
z273z228z1                    1.000000
z273z261z2                    1.000000
z273z55z1                     1.000000
z273z120z1                    1.000000
z273z189z1                    1.000000
z273z248z1                    1.000000
z273z196z2                    1.000000
z273z275z2                    1.000000
z273z125z1                    1.000000
z273z170z2                    1.000000
z273z204z1                    1.000000
z273z161z1                    1.000000
z273z56z1                     1.000000
z273z69z2                     1.000000
z273z37z2                     1.000000
z273z242z1                    1.000000
s177                          4.847780
z177z250z2                    1.000000
z177z159z2                    1.000000
z177z124z2                    1.000000
z177z213z2                    1.000000
z177z241z2                    1.000000
z177z228z1                    1.000000
z177z1z1                      1.000000
z177z245z1                    1.000000
z177z222z2                    1.000000
z177z51z1                     1.000000
z177z261z2                    1.000000
z177z55z1                     1.000000
z177z120z1                    1.000000
z177z189z1                    1.000000
z177z248z1                    1.000000
z177z196z2                    1.000000
z177z275z2                    1.000000
z177z125z1                    1.000000
z177z170z2                    1.000000
z177z204z1                    1.000000
z177z161z1                    1.000000
z177z56z1                     1.000000
z177z69z2                     1.000000
z177z37z2                     1.000000
z177z242z1                    1.000000
s216                          5.072620
z216z267z3                    1.000000
z216z47z3                     1.000000
z216z205z3                    1.000000
z216z179z3                    1.000000
z216z202z3                    1.000000
z216z70z3                     1.000000
z216z35z3                     1.000000
s249                          5.329460
z249z179z3                    1.000000
z249z202z3                    1.000000
z249z70z3                     1.000000
z249z35z3                     1.000000
s269                          5.109610
z269z224z3                    1.000000
z269z47z3                     1.000000
z269z205z3                    1.000000
z269z179z3                    1.000000
z269z202z3                    1.000000
z269z70z3                     1.000000
z269z35z3                     1.000000
s103                          5.380210
z103z86z2                     1.000000
z103z212z3                    1.000000
z103z179z3                    1.000000
z103z261z2                    1.000000
z103z196z2                    1.000000
z103z275z2                    1.000000
z103z202z3                    1.000000
z103z70z3                     1.000000
z103z170z2                    1.000000
z103z35z3                     1.000000
z103z69z2                     1.000000
z103z37z2                     1.000000
s122                          5.702690
z122z212z1                    1.000000
z122z165z1                    1.000000
z122z125z1                    1.000000
z122z204z1                    1.000000
z122z161z1                    1.000000
z122z56z1                     1.000000
z122z242z1                    1.000000
s16                           5.816720
z16z253z2                     1.000000
z16z196z2                     1.000000
z16z275z2                     1.000000
z16z170z2                     1.000000
z16z69z2                      1.000000
z16z37z2                      1.000000
s217                          5.904440
z217z125z1                    1.000000
z217z204z1                    1.000000
z217z161z1                    1.000000
z217z56z1                     1.000000
z217z242z1                    1.000000
z264z70z3                     1.000000
z264z35z3                     1.000000
z193z125z1                    1.000000
z193z161z1                    1.000000
z193z56z1                     1.000000
z193z69z2                     1.000000
z193z37z2                     1.000000
z193z242z1                    1.000000
z171z63z3                     1.000000
z171z1z1                      1.000000
z171z242z1                    1.000000
z250z178z1                    1.000000
z250z117z2                    1.000000
z250z56z1                     1.000000
z250z37z2                     1.000000
z250z242z1                    1.000000
z267z240z2                    1.000000
z267z240z3                    1.000000
z267z37z2                     1.000000
z149z1z1                      1.000000
z149z199z3                    1.000000
z224z255z3                    1.000000
z224z275z2                    1.000000
z224z37z2                     1.000000
z99z37z2                      1.000000
z142z37z2                     1.000000
z86z178z2                     1.000000
z86z110z2                     1.000000
z86z37z2                      1.000000
z29z37z2                      1.000000
z47z70z3                      1.000000
z251z37z2                     1.000000
z121z63z1                     1.000000
z121z117z3                    1.000000
z104z222z2                    1.000000
z104z165z3                    1.000000
z104z37z2                     1.000000
z253z199z2                    1.000000
z253z275z2                    1.000000
z253z37z2                     1.000000
z200z90z3                     1.000000
z200z111z2                    1.000000
z233z255z1                    1.000000
z233z161z1                    1.000000
z75z37z2                      1.000000
z159z37z2                     1.000000
z63z136z3                     1.000000
z63z98z1                      1.000000
z240z19z2                     1.000000
z240z19z3                     1.000000
z212z111z1                    1.000000
z212z110z3                    1.000000
z1z242z1                      1.000000
z245z90z1                     1.000000
z245z161z1                    1.000000
z222z69z2                     1.000000
z179z202z3                    1.000000
z178z32z2                     1.000000
z117z98z3                     1.000000
z165z136z1                    1.000000
z165z3z3                      1.000000
z125z3z1                      1.000000
z125z32z1                     1.000000
All other variables in the range 1-8526 are 0.
